certificates/rado_a10_c88_N17.cnf
c Rad2 upper bound instance: x1 + 10*x2 - x3 = 88, interval [1,17]
p cnf 17 58
1 3 9 0
-1 -3 -9 0
1 10 13 0
-1 -10 -13 0
2 4 9 0
-2 -4 -9 0
2 10 14 0
-2 -10 -14 0
3 5 9 0
-3 -5 -9 0
3 10 15 0
-3 -10 -15 0
4 6 9 0
-4 -6 -9 0
4 10 16 0
-4 -10 -16 0
5 7 9 0
-5 -7 -9 0
5 10 17 0
-5 -10 -17 0
6 8 9 0
-6 -8 -9 0
7 9 0
-7 -9 0
8 9 10 0
-8 -9 -10 0
1 8 9 0
-1 -8 -9 0
9 11 0
-9 -11 0
2 8 10 0
-2 -8 -10 0
9 10 12 0
-9 -10 -12 0
3 8 11 0
-3 -8 -11 0
9 11 13 0
-9 -11 -13 0
4 8 12 0
-4 -8 -12 0
9 12 14 0
-9 -12 -14 0
5 8 13 0
-5 -8 -13 0
9 13 15 0
-9 -13 -15 0
6 8 14 0
-6 -8 -14 0
9 14 16 0
-9 -14 -16 0
7 8 15 0
-7 -8 -15 0
9 15 17 0
-9 -15 -17 0
8 16 0
-8 -16 0
8 9 17 0
-8 -9 -17 0
