certificates/rado_a10_c88_N17.drat
9 8 -17 0
8 -17 0
d 9 8 -17 0
-8 -17 0
d -8 -9 -17 0
-17 0
-8 -9 0
d -1 -8 -9 0
15 0
-9 0
7 0
11 0
8 0
0
